(set-info :smt-lib-version 2.6)
(set-logic QF_SLIA)
(set-info :source |
Generated by: Dmitry Blotsky1, Federico Mora, Murphy Berzish, Yunhui Zheng, Ifaz Kabir, Vijay Ganesh, Zhengyang Lu
Generated on: 2018-01-24
Generator: StringFuzz
Application: Evaluate string solvers
Target solver: Z3str3, CVC4, Z3str2, Norn
Publications: Blotsky, D., Mora, F., Berzish, M., Zheng, Y., Kabir, I., & Ganesh, V. (2018). Stringfuzz: A fuzzer for string solvers. In CAV 2018.
Description: new instance generated by StringFuzz, a modular string and regex fuzzer
|)
(set-info :license "https://creativecommons.org/licenses/by/4.0/")
(set-info :category "random")
(set-info :status unknown)

(declare-fun var0 () String)
(assert (str.in_re var0 (re.++ (re.+ (re.union (str.to_re "000") (str.to_re "11"))) (re.++ (re.+ (re.+ (str.to_re "2"))) (re.++ (re.* (re.union (str.to_re "3") (str.to_re "444"))) (re.++ (re.+ (re.+ (str.to_re "55"))) (re.++ (re.union (re.+ (str.to_re "6")) (re.* (str.to_re "77"))) (re.++ (re.* (re.* (str.to_re "8"))) (re.++ (re.* (re.+ (str.to_re "999"))) (re.++ (re.union (re.* (str.to_re "aaa")) (re.+ (str.to_re "b"))) (re.++ (re.* (re.* (str.to_re "ccc"))) (re.++ (re.+ (re.+ (str.to_re "dd"))) (re.++ (re.+ (re.union (str.to_re "e") (str.to_re "ff"))) (re.++ (re.union (re.* (str.to_re "ggg")) (re.* (str.to_re "hhh"))) (re.++ (re.+ (re.* (str.to_re "ii"))) (re.++ (re.* (re.union (str.to_re "j") (str.to_re "kk"))) (re.++ (re.+ (re.+ (str.to_re "ll"))) (re.++ (re.union (re.* (str.to_re "mmm")) (re.* (str.to_re "nnn"))) (re.++ (re.+ (re.+ (str.to_re "o"))) (re.++ (re.union (re.union (str.to_re "ppp") (str.to_re "q")) (re.* (str.to_re "r"))) (re.++ (re.* (re.* (str.to_re "s"))) (re.++ (re.* (re.+ (str.to_re "tt"))) (re.union (re.+ (str.to_re "uu")) (re.+ (str.to_re "vvv")))))))))))))))))))))))))
(assert (not (str.in_re var0 (re.++ (re.+ (re.union (str.to_re "000") (str.to_re "1"))) (re.++ (re.union (re.+ (str.to_re "222")) (re.union (str.to_re "3") (str.to_re "44"))) (re.++ (re.* (re.* (str.to_re "5"))) (re.++ (re.* (re.* (str.to_re "66"))) (re.++ (re.union (re.+ (str.to_re "777")) (re.+ (str.to_re "888"))) (re.++ (re.+ (re.+ (str.to_re "9"))) (re.++ (re.union (re.union (str.to_re "aaa") (str.to_re "bbb")) (re.+ (str.to_re "cc"))) (re.++ (re.+ (re.+ (str.to_re "dd"))) (re.++ (re.union (re.* (str.to_re "e")) (re.+ (str.to_re "ff"))) (re.++ (re.* (re.* (str.to_re "gg"))) (re.++ (re.* (re.union (str.to_re "hh") (str.to_re "iii"))) (re.++ (re.union (re.+ (str.to_re "jjj")) (re.union (str.to_re "kkk") (str.to_re "lll"))) (re.++ (re.* (re.union (str.to_re "m") (str.to_re "nn"))) (re.++ (re.+ (re.+ (str.to_re "o"))) (re.++ (re.+ (re.* (str.to_re "ppp"))) (re.++ (re.union (re.union (str.to_re "qqq") (str.to_re "r")) (re.+ (str.to_re "ss"))) (re.++ (re.* (re.* (str.to_re "tt"))) (re.++ (re.* (re.union (str.to_re "u") (str.to_re "v"))) (re.++ (re.+ (re.* (str.to_re "www"))) (re.++ (re.* (re.* (str.to_re "xx"))) (re.* (re.* (str.to_re "y"))))))))))))))))))))))))))
(check-sat)
(exit)
